language ESSENCE' 1.0

letting jobs = 102
letting horizon = 812
letting resourcesRenew = 2
letting resourcesNonrenew = 2
letting resourceLimits = [47, 53, 626, 587]
letting successors = [[2, 3, 4, 5, 6, 7, 8, 9, 10, 11, 12, 13, 15, 18, 21, 23, 25, 27, 28, 30, 32], [54, 45, 44, 43, 38, 35, 34, 33, 31, 29, 24, 17], [47, 41, 38, 37, 36, 31, 29, 20, 19, 14], [57, 47, 46, 45, 43, 42, 41, 39, 38, 37, 35, 33, 29, 22, 19], [57, 49, 45, 41, 39, 36, 35, 33, 29, 19, 16], [57, 49, 48, 46, 45, 42, 41, 35, 33, 31, 19], [49, 48, 47, 46, 45, 42, 38, 36, 31, 19], [57, 54, 53, 52, 51, 49, 47, 38, 37, 36, 31, 29], [64, 56, 54, 53, 51, 50, 49, 48, 47, 45, 42, 39, 38, 36, 33], [69, 47, 46, 42, 37, 35, 26, 19], [49, 46, 45, 43, 42, 31, 19], [69, 49, 47, 46, 44, 42, 39, 19], [69, 64, 61, 53, 51, 47, 46, 45, 42, 41, 40, 39, 37], [71, 64, 62, 61, 58, 57, 55, 54, 51, 49, 44, 42, 35], [65, 64, 62, 61, 56, 55, 54, 52, 51, 44, 41, 38, 35], [69, 64, 61, 58, 55, 54, 47, 42, 40, 38], [73, 64, 57, 56, 49, 48, 42, 37, 36], [71, 64, 57, 53, 52, 47, 44, 43, 40, 39], [86, 71, 68, 64, 62, 61, 60, 58, 54, 53, 52, 51, 40], [86, 84, 71, 69, 61, 58, 57, 51, 48, 46, 40], [86, 76, 73, 69, 64, 61, 59, 57, 55, 53, 52, 50, 48, 38], [73, 71, 68, 64, 60, 50, 49, 36], [86, 77, 69, 68, 64, 62, 60, 58, 55, 54, 52, 51, 50], [77, 71, 64, 63, 62, 60, 56, 53, 52, 51, 50], [86, 76, 64, 61, 55, 53, 48, 42], [71, 64, 59, 55, 54, 49, 40], [85, 77, 75, 72, 71, 69, 64, 63, 62, 60, 58, 55, 54, 51], [86, 84, 75, 73, 72, 71, 62, 61, 58, 56, 51, 48], [86, 84, 81, 64, 60, 59, 40], [75, 73, 68, 65, 63, 60, 59, 58, 55, 49], [85, 70, 68, 64, 39], [85, 84, 77, 75, 74, 73, 71, 68, 67, 66, 65, 64, 63, 59, 54], [86, 85, 84, 81, 77, 76, 75, 73, 72, 70, 68, 66, 65, 55], [86, 85, 84, 76, 75, 72, 71, 70, 68, 60, 59, 55], [86, 84, 77, 76, 73, 70, 68, 63, 60, 59, 53], [86, 76, 70, 69, 63, 62, 61, 59, 58, 55], [97, 85, 84, 83, 77, 76, 74, 72, 71, 70, 68, 59, 58], [85, 84, 80, 77, 75, 74, 72, 71, 70, 68, 66, 60], [86, 84, 81, 77, 76, 75, 65, 63, 62, 60, 55], [83, 80, 77, 75, 74, 73, 63, 56, 50], [101, 83, 76, 75, 74, 72, 70, 68, 67, 63, 59, 58], [85, 81, 77, 75, 72, 68, 65, 60, 59, 52], [84, 81, 73, 72, 69, 68, 66, 65, 60, 55], [85, 84, 76, 74, 72, 66, 60], [86, 83, 82, 77, 76, 74, 72, 68, 67, 65], [101, 98, 81, 80, 79, 76, 74, 68, 66, 65], [101, 86, 79, 74, 73, 66, 62], [101, 85, 82, 80, 78, 70, 60], [100, 99, 97, 95, 94, 92, 84, 77, 72, 70], [101, 99, 95, 91, 85, 72, 66, 65], [101, 100, 97, 82, 74, 59], [100, 96, 95, 94, 92, 90, 84, 82, 78, 67], [100, 96, 95, 94, 92, 82, 81, 78, 75, 67], [101, 99, 97, 96, 94, 93, 80, 76, 70], [100, 94, 83, 82, 80, 79, 74, 67], [101, 100, 97, 96, 95, 94, 93, 76, 70], [100, 94, 92, 79, 78, 77, 67], [95, 91, 81, 79, 66], [99, 98, 96, 94, 93, 92, 91, 88, 87, 80, 79], [96, 95, 94, 92, 83, 67], [98, 97, 95, 93, 66], [100, 94, 92, 67], [100, 98, 97, 94, 92, 91, 90, 89, 78], [100, 99, 97, 96, 95, 94, 91, 90, 89, 87], [100, 97, 96, 94, 93, 90, 89, 78], [100, 96, 94, 92, 82, 78], [99, 98, 97, 93, 91, 89, 88, 87], [95, 93, 92, 91, 90, 78], [101, 95, 91, 88, 87, 79], [98, 91, 88, 87, 79], [99, 91, 88, 81], [79, 78], [96, 93, 90, 89, 88], [95, 92, 90, 88], [99, 97, 91, 90], [92, 78], [96, 93, 91], [88, 87], [90, 89], [95, 90], [90, 87], [89], [87], [101], [89], [93], [102], [102], [102], [102], [102], [102], [102], [102], [102], [102], [102], [102], [102], [102], [102], []]
letting durations = [[0], [1, 1, 7], [4, 7, 10], [6, 7, 8], [2, 3, 7], [3, 4, 6], [6, 7, 10], [2, 6, 9], [7, 8, 9], [3, 5, 10], [3, 4, 10], [1, 5, 5], [1, 3, 6], [1, 6, 8], [1, 2, 8], [1, 3, 5], [2, 3, 10], [3, 7, 8], [2, 3, 4], [2, 6, 8], [1, 2, 6], [3, 9, 10], [2, 3, 5], [4, 5, 8], [3, 10, 10], [5, 6, 9], [1, 7, 8], [5, 6, 8], [4, 6, 10], [5, 7, 9], [2, 3, 7], [7, 8, 9], [2, 3, 6], [4, 6, 10], [1, 5, 8], [1, 8, 10], [2, 4, 6], [4, 5, 10], [4, 4, 5], [3, 9, 10], [4, 9, 10], [3, 5, 8], [8, 8, 10], [1, 4, 8], [1, 3, 4], [5, 10, 10], [1, 5, 8], [1, 8, 9], [2, 3, 4], [2, 4, 5], [2, 5, 10], [5, 5, 9], [1, 5, 9], [6, 8, 10], [1, 5, 9], [2, 4, 5], [4, 5, 7], [5, 7, 9], [2, 8, 9], [1, 4, 5], [2, 6, 9], [4, 4, 7], [3, 4, 6], [1, 3, 7], [3, 7, 9], [1, 4, 7], [1, 2, 8], [1, 3, 4], [6, 7, 10], [2, 3, 6], [1, 3, 7], [1, 4, 6], [1, 6, 9], [5, 8, 9], [4, 8, 10], [6, 8, 9], [2, 3, 7], [2, 4, 10], [3, 5, 10], [4, 4, 7], [3, 4, 5], [1, 3, 8], [3, 5, 8], [2, 5, 9], [4, 5, 5], [1, 5, 10], [5, 7, 10], [4, 6, 8], [3, 6, 8], [2, 9, 10], [4, 8, 10], [3, 8, 10], [2, 4, 8], [3, 5, 10], [5, 9, 10], [5, 7, 10], [6, 7, 9], [4, 7, 10], [4, 6, 9], [1, 3, 10], [1, 4, 8], [0]]
letting resourceUsage = [[[0, 0, 0, 0]], [[0, 4, 5, 7], [3, 0, 5, 7], [0, 2, 4, 6]], [[0, 2, 5, 2], [2, 0, 3, 1], [0, 1, 3, 1]], [[5, 0, 9, 7], [3, 0, 7, 7], [3, 0, 7, 6]], [[3, 0, 8, 3], [3, 0, 8, 2], [3, 0, 8, 1]], [[0, 5, 8, 3], [0, 4, 8, 2], [3, 0, 7, 2]], [[0, 5, 5, 9], [0, 3, 4, 8], [3, 0, 4, 7]], [[0, 4, 4, 2], [0, 3, 3, 1], [1, 0, 3, 1]], [[0, 2, 8, 7], [3, 0, 8, 5], [0, 2, 6, 2]], [[0, 5, 8, 8], [1, 0, 6, 7], [1, 0, 6, 6]], [[1, 0, 6, 9], [0, 3, 6, 8], [1, 0, 6, 8]], [[0, 4, 8, 8], [4, 0, 7, 8], [0, 4, 4, 8]], [[1, 0, 7, 7], [0, 3, 7, 6], [1, 0, 7, 3]], [[0, 4, 10, 5], [0, 4, 9, 2], [1, 0, 8, 2]], [[0, 5, 3, 8], [0, 2, 2, 7], [1, 0, 1, 7]], [[5, 0, 10, 5], [4, 0, 9, 4], [4, 0, 8, 4]], [[5, 0, 3, 9], [4, 0, 2, 8], [3, 0, 1, 8]], [[0, 4, 10, 9], [3, 0, 9, 9], [0, 2, 9, 9]], [[0, 5, 5, 9], [0, 4, 5, 5], [3, 0, 5, 3]], [[0, 5, 5, 6], [4, 0, 4, 5], [0, 4, 3, 3]], [[0, 5, 8, 5], [4, 0, 6, 5], [3, 0, 4, 5]], [[0, 3, 7, 3], [0, 3, 7, 2], [0, 3, 3, 2]], [[2, 0, 4, 9], [0, 3, 3, 4], [1, 0, 1, 2]], [[4, 0, 10, 5], [4, 0, 8, 5], [4, 0, 7, 3]], [[5, 0, 6, 4], [0, 3, 4, 3], [1, 0, 3, 2]], [[0, 3, 3, 6], [0, 2, 3, 4], [1, 0, 1, 3]], [[0, 3, 3, 9], [3, 0, 2, 4], [0, 3, 2, 4]], [[0, 4, 5, 4], [0, 3, 5, 4], [2, 0, 5, 4]], [[0, 3, 5, 6], [2, 0, 5, 5], [0, 3, 5, 4]], [[0, 3, 9, 7], [3, 0, 9, 4], [0, 1, 9, 3]], [[0, 3, 7, 8], [0, 2, 7, 6], [0, 2, 5, 4]], [[0, 3, 6, 3], [1, 0, 4, 2], [1, 0, 2, 2]], [[0, 3, 8, 9], [0, 2, 6, 7], [4, 0, 1, 5]], [[0, 2, 5, 4], [0, 2, 5, 3], [3, 0, 5, 2]], [[4, 0, 7, 4], [0, 2, 6, 4], [2, 0, 6, 3]], [[4, 0, 4, 8], [2, 0, 3, 8], [0, 2, 2, 8]], [[0, 3, 7, 10], [0, 3, 6, 6], [0, 2, 5, 2]], [[0, 4, 8, 8], [0, 3, 7, 6], [0, 3, 6, 4]], [[4, 0, 3, 10], [0, 1, 3, 9], [0, 1, 3, 8]], [[2, 0, 4, 9], [0, 3, 3, 8], [1, 0, 3, 7]], [[0, 2, 4, 9], [3, 0, 3, 7], [0, 2, 2, 3]], [[4, 0, 7, 6], [0, 1, 6, 5], [0, 1, 5, 2]], [[0, 5, 4, 5], [1, 0, 4, 3], [0, 2, 4, 3]], [[0, 3, 8, 5], [0, 2, 5, 4], [0, 2, 2, 3]], [[3, 0, 9, 6], [0, 2, 9, 3], [0, 1, 8, 2]], [[5, 0, 8, 8], [0, 2, 7, 5], [3, 0, 7, 5]], [[5, 0, 10, 8], [4, 0, 6, 6], [3, 0, 4, 3]], [[5, 0, 8, 7], [0, 3, 4, 5], [3, 0, 1, 4]], [[2, 0, 7, 9], [0, 2, 5, 5], [0, 2, 3, 3]], [[4, 0, 9, 6], [3, 0, 9, 5], [2, 0, 9, 4]], [[0, 3, 4, 10], [2, 0, 2, 10], [0, 1, 2, 10]], [[0, 5, 4, 5], [2, 0, 2, 5], [2, 0, 1, 5]], [[0, 3, 7, 9], [1, 0, 3, 8], [0, 2, 1, 8]], [[4, 0, 7, 8], [0, 3, 6, 7], [1, 0, 6, 7]], [[3, 0, 7, 5], [3, 0, 7, 4], [0, 4, 6, 5]], [[0, 4, 6, 5], [0, 4, 6, 4], [0, 4, 5, 2]], [[0, 1, 10, 9], [0, 1, 7, 8], [3, 0, 4, 7]], [[0, 4, 4, 7], [3, 0, 2, 6], [0, 2, 2, 2]], [[5, 0, 9, 5], [0, 2, 5, 3], [0, 2, 5, 2]], [[0, 2, 7, 5], [0, 2, 5, 4], [0, 1, 5, 4]], [[4, 0, 9, 5], [0, 3, 7, 5], [4, 0, 7, 5]], [[0, 3, 7, 7], [4, 0, 6, 6], [0, 1, 6, 6]], [[0, 4, 5, 8], [0, 3, 3, 7], [0, 2, 3, 6]], [[2, 0, 10, 3], [0, 4, 5, 2], [2, 0, 3, 2]], [[0, 2, 2, 7], [0, 2, 1, 5], [3, 0, 1, 2]], [[5, 0, 7, 6], [4, 0, 7, 6], [3, 0, 7, 6]], [[0, 4, 10, 6], [3, 0, 9, 4], [2, 0, 9, 4]], [[4, 0, 8, 4], [0, 4, 7, 2], [0, 4, 6, 2]], [[0, 4, 7, 8], [4, 0, 6, 8], [0, 1, 5, 7]], [[5, 0, 5, 7], [3, 0, 3, 5], [2, 0, 3, 5]], [[3, 0, 9, 5], [0, 4, 7, 5], [0, 2, 4, 5]], [[0, 3, 3, 8], [1, 0, 2, 7], [0, 2, 2, 2]], [[4, 0, 9, 8], [3, 0, 9, 8], [1, 0, 8, 6]], [[0, 3, 7, 4], [1, 0, 4, 4], [0, 1, 3, 4]], [[0, 3, 6, 4], [0, 3, 4, 3], [0, 3, 4, 2]], [[0, 3, 9, 1], [2, 0, 6, 1], [2, 0, 3, 1]], [[4, 0, 4, 9], [2, 0, 3, 9], [0, 1, 3, 8]], [[5, 0, 9, 4], [5, 0, 7, 2], [5, 0, 5, 2]], [[0, 3, 5, 7], [4, 0, 5, 4], [0, 3, 2, 1]], [[3, 0, 7, 8], [0, 3, 5, 7], [3, 0, 3, 4]], [[0, 5, 8, 6], [0, 3, 6, 6], [0, 2, 6, 5]], [[5, 0, 5, 10], [0, 3, 4, 6], [2, 0, 4, 2]], [[0, 4, 9, 5], [3, 0, 7, 5], [3, 0, 1, 4]], [[0, 5, 9, 8], [4, 0, 9, 8], [0, 4, 8, 8]], [[0, 5, 8, 8], [0, 3, 6, 7], [3, 0, 4, 7]], [[0, 4, 10, 7], [0, 3, 8, 6], [1, 0, 6, 6]], [[0, 5, 7, 1], [0, 3, 4, 1], [2, 0, 2, 1]], [[0, 2, 9, 2], [2, 0, 8, 2], [1, 0, 7, 2]], [[3, 0, 6, 6], [0, 2, 6, 5], [0, 2, 6, 4]], [[3, 0, 8, 8], [0, 2, 7, 7], [2, 0, 7, 6]], [[3, 0, 7, 8], [0, 2, 6, 8], [1, 0, 5, 8]], [[3, 0, 8, 6], [0, 2, 8, 4], [1, 0, 6, 3]], [[2, 0, 4, 5], [2, 0, 3, 2], [0, 4, 3, 1]], [[5, 0, 10, 6], [4, 0, 8, 5], [4, 0, 7, 5]], [[4, 0, 8, 2], [3, 0, 8, 2], [3, 0, 6, 2]], [[5, 0, 10, 4], [5, 0, 8, 3], [5, 0, 8, 2]], [[0, 3, 3, 7], [4, 0, 3, 7], [4, 0, 2, 7]], [[2, 0, 8, 9], [2, 0, 4, 7], [0, 2, 4, 7]], [[2, 0, 7, 5], [2, 0, 6, 2], [2, 0, 6, 1]], [[4, 0, 7, 9], [0, 2, 7, 8], [0, 2, 6, 7]], [[0, 3, 8, 8], [0, 2, 7, 7], [0, 2, 7, 6]], [[0, 0, 0, 0]]]
